

*************************************************************

   NEOS Server Version 6.0
   Job#     : 18284292
   Password : HRTbBWav
   User     : 
   Solver   : milp:Gurobi:AMPL
   Start    : 2026-01-26 08:41:06
   End      : 2026-01-26 08:52:57
   Host     : prod-sub-1.neos-server.org

   Disclaimer:

   This information is provided without any express or
   implied warranty. In particular, there is no warranty
   of any kind concerning the fitness of this
   information for any particular purpose.

   Announcements:
*************************************************************
You are using the solver gurobi_ampl.
Checking ampl.mod for gurobi_options...
Checking ampl.com for gurobi_options...
Executing AMPL.
processing data.
processing commands.
Executing on prod-exec-1.neos-server.org
N = 595


"option presolve 0;" used, but "option presolve 10;" might work better.
595 variables, all binary
176715 constraints, all linear; 353430 nonzeros
	176715 inequality constraints
1 linear objective; 595 nonzeros.

Gurobi 12.0.3:   tech:threads = 4
  pre:solve = 2
  alg:iisfind = 1
Set parameter LogToConsole to value 1
  tech:outlev = 1

AMPL MP initial flat model has 595 variables (0 integer, 595 binary);
Objectives: 1 linear; 
Constraints:  176715 linear;

AMPL MP final model has 595 variables (0 integer, 595 binary);
Objectives: 1 linear; 
Constraints:  176715 linear;


Set parameter InfUnbdInfo to value 1
Gurobi Optimizer version 12.0.3 build v12.0.3rc0 (linux64 - "Rocky Linux 8.10 (Green Obsidian)")

CPU model: Intel(R) Xeon(R) CPU E5-2698 v3 @ 2.30GHz, instruction set [SSE2|AVX|AVX2]
Thread count: 32 physical cores, 64 logical processors, using up to 4 threads

Non-default parameters:
InfUnbdInfo  1
Presolve  2
Threads  4

Optimize a model with 176715 rows, 595 columns and 353430 nonzeros
Model fingerprint: 0x35b9c379
Variable types: 0 continuous, 595 integer (0 binary)
Coefficient statistics:
  Matrix range     [1e+00, 1e+00]
  Objective range  [1e+00, 1e+00]
  Bounds range     [1e+00, 1e+00]
  RHS range        [1e+00, 2e+00]
Found heuristic solution: objective 26.0000000
Presolve removed 171294 rows and 0 columns
Presolve time: 0.10s
Presolved: 5421 rows, 595 columns, 23881 nonzeros
Variable types: 0 continuous, 595 integer (595 binary)
Performing another presolve...
Presolve removed 231 rows and 0 columns
Presolve time: 0.73s
Root relaxation presolved: 5190 rows, 595 columns, 33354 nonzeros


Root relaxation: objective 5.928874e+01, 7542 iterations, 2.26 seconds (2.61 work units)

    Nodes    |    Current Node    |     Objective Bounds      |     Work
 Expl Unexpl |  Obj  Depth IntInf | Incumbent    BestBd   Gap | It/Node Time

     0     0   59.28874    0  456   26.00000   59.28874   128%     -    3s
H    0     0                      27.0000000   37.53979  39.0%     -    4s
H    0     0                      28.0000000   37.53979  34.1%     -    4s
     0     0   37.53979    0  191   28.00000   37.53979  34.1%     -    4s
     0     0   36.64306    0  165   28.00000   36.64306  30.9%     -    4s
     0     0   36.64306    0  162   28.00000   36.64306  30.9%     -    4s
     0     0   35.00000    0  157   28.00000   35.00000  25.0%     -    5s
     0     0   35.00000    0  145   28.00000   35.00000  25.0%     -    5s
     0     0   35.00000    0  151   28.00000   35.00000  25.0%     -    5s
     0     0   35.00000    0  134   28.00000   35.00000  25.0%     -    5s
H    0     0                      29.0000000   35.00000  20.7%     -    5s
H    0     0                      30.0000000   35.00000  16.7%     -    5s
     0     0   35.00000    0  134   30.00000   35.00000  16.7%     -    5s
     0     0   35.00000    0  131   30.00000   35.00000  16.7%     -    5s
H    0     0                      31.0000000   35.00000  12.9%     -    6s
     0     0   35.00000    0  140   31.00000   35.00000  12.9%     -    6s
     0     0   35.00000    0  126   31.00000   35.00000  12.9%     -    6s
     0     0   35.00000    0  134   31.00000   35.00000  12.9%     -    6s
     0     0   35.00000    0  131   31.00000   35.00000  12.9%     -    7s
     0     0   35.00000    0  135   31.00000   35.00000  12.9%     -    7s
     0     0   35.00000    0  135   31.00000   35.00000  12.9%     -    7s
     0     2   35.00000    0  135   31.00000   35.00000  12.9%     -    9s
    11    58   35.00000    4  121   31.00000   35.00000  12.9%   495   10s
H   57   139                      32.0000000   35.00000  9.37%   228   10s
  1407   918   34.50000   25  298   32.00000   35.00000  9.37%  84.4   16s
  1409   919   34.00000   13  456   32.00000   35.00000  9.37%  84.2   24s
  1410   920   34.50000   36  169   32.00000   35.00000  9.37%  84.2   25s
  1425   930   33.33333   19  135   32.00000   35.00000  9.37%  83.3   30s
  1431   937   35.00000   13  125   32.00000   35.00000  9.37%   111   36s
  1673  1167   34.90909   40   99   32.00000   35.00000  9.37%   115   40s
  2606  1233   34.97436   30  122   32.00000   35.00000  9.37%   102   45s
  4916  1721   33.96053   27  122   32.00000   35.00000  9.37%  89.9   50s
  6494  2646   34.00000   46   73   32.00000   35.00000  9.37%  86.4   55s
* 6876  1350              37      33.0000000   35.00000  6.06%  85.5   55s
  8272  1650     cutoff   35        33.00000   35.00000  6.06%  88.4   60s
  9362  2234   34.30000   41   98   33.00000   35.00000  6.06%  89.8   65s
 11701  2747   34.90000   49  104   33.00000   35.00000  6.06%  91.0   70s
 13193  3596   34.47368   22   84   33.00000   35.00000  6.06%  93.0   75s
 14655  4011   34.66667   32   95   33.00000   35.00000  6.06%  93.8   80s
 16344  4573     cutoff   37        33.00000   35.00000  6.06%  95.2   85s
 18508  5359   34.00000   54   67   33.00000   35.00000  6.06%  95.0   90s
 20110  5872     cutoff   41        33.00000   35.00000  6.06%  95.7   95s
 20759  5972   34.00000   48  298   33.00000   35.00000  6.06%  95.9  119s
 20761  5973   34.57143   43  456   33.00000   35.00000  6.06%  95.9  127s
 20768  5978   34.83333   26  147   33.00000   35.00000  6.06%  95.9  130s
 20779  5985   34.66667   35  134   33.00000   35.00000  6.06%  95.8  135s
 20819  6033   35.00000   31  104   33.00000   35.00000  6.06%  97.4  140s
 21123  6061   35.00000   35   86   33.00000   35.00000  6.06%  98.1  146s
 21320  6142   35.00000   44   69   33.00000   35.00000  6.06%  98.1  152s
 21814  6078   34.40625   54  102   33.00000   35.00000  6.06%  97.8  155s
 22113  6255   35.00000   34   99   33.00000   35.00000  6.06%  97.8  160s
 23902  6072     cutoff   46        33.00000   35.00000  6.06%  97.5  165s
 25620  6191   34.50000   47   83   33.00000   35.00000  6.06%  97.5  170s
 26555  6277   34.00000   57   69   33.00000   35.00000  6.06%  97.5  175s
 27988  6471   34.98182   45  130   33.00000   35.00000  6.06%  97.3  180s
 29977  6216     cutoff   51        33.00000   35.00000  6.06%  96.9  185s
 31162  6301     cutoff   54        33.00000   35.00000  6.06%  96.9  191s
 32467  6199     cutoff   49        33.00000   35.00000  6.06%  96.9  195s
 34729  6190   34.90909   42  132   33.00000   35.00000  6.06%  97.2  201s
 36185  6071   34.33333   65  100   33.00000   35.00000  6.06%  97.3  205s
 37341  6058   34.66667   54  118   33.00000   35.00000  6.06%  97.7  210s
 38656  6002   34.00000   48   92   33.00000   35.00000  6.06%  97.8  215s
 40247  6583   34.00000   44   72   33.00000   35.00000  6.06%  97.9  220s
 41596  6953   34.00000   50   56   33.00000   35.00000  6.06%  98.2  225s
 43536  7542   35.00000   37   86   33.00000   35.00000  6.06%  98.2  230s
 44958  7936   34.00000   40   80   33.00000   35.00000  6.06%  97.9  235s
 47358  8712   34.72109   46  123   33.00000   35.00000  6.06%  97.7  240s
 48447  9075   34.00000   51   78   33.00000   35.00000  6.06%  97.7  245s
 50087  9611   34.00000   49   68   33.00000   35.00000  6.06%  97.9  250s
 51546  9961   34.75000   48   76   33.00000   35.00000  6.06%  97.7  255s
 52860 10565   34.99084   61  153   33.00000   35.00000  6.06%  98.1  260s
 54795 11191   34.25000   69   93   33.00000   35.00000  6.06%  97.7  265s
 56650 12034     cutoff   54        33.00000   35.00000  6.06%  97.8  270s
 58124 12512   34.84314   50  119   33.00000   35.00000  6.06%  97.9  276s
 59544 12932     cutoff   49        33.00000   35.00000  6.06%  97.9  280s
 61095 13318   34.00000   45   56   33.00000   35.00000  6.06%  98.1  285s
 62100 13709   35.00000   41   89   33.00000   35.00000  6.06%  98.3  290s
 63441 14056   34.88889   42   98   33.00000   35.00000  6.06%  98.5  295s
 65072 14663   35.00000   61   80   33.00000   35.00000  6.06%  98.9  300s
 67106 15225   34.94118   53  114   33.00000   35.00000  6.06%  98.8  306s
 69162 15979   34.91667   42  113   33.00000   35.00000  6.06%  98.7  310s
 70612 16365   34.77419   56  105   33.00000   35.00000  6.06%  98.4  315s
 72325 16912   34.00000   47   86   33.00000   35.00000  6.06%  98.5  321s
 73348 17151   34.50000   44   75   33.00000   35.00000  6.06%  98.6  325s
 74540 17762   34.50000   56   68   33.00000   35.00000  6.06%  98.5  330s
 76714 18421 infeasible   50        33.00000   35.00000  6.06%  98.6  336s
 78316 18955     cutoff   58        33.00000   35.00000  6.06%  98.7  341s
 80067 19547   35.00000   51   92   33.00000   35.00000  6.06%  98.8  346s
 81300 20000   34.00000   75   85   33.00000   35.00000  6.06%  98.8  351s
 82623 20554   34.33333   53   79   33.00000   35.00000  6.06%  98.8  355s
 83837 20994   35.00000   49  101   33.00000   35.00000  6.06%  98.8  360s
 85825 21697   34.00000   66   82   33.00000   35.00000  6.06%  98.5  365s
 88611 22837   34.66667   38  103   33.00000   35.00000  6.06%  98.1  370s
 90290 23389   34.90909   60  105   33.00000   35.00000  6.06%  97.9  375s
 92290 24243     cutoff   62        33.00000   35.00000  6.06%  97.8  380s
 93208 24479   34.62500   87  104   33.00000   35.00000  6.06%  97.8  385s
 93544 24837   34.78947   44  100   33.00000   35.00000  6.06%  97.8  391s
 95023 25117   34.85714   62  108   33.00000   35.00000  6.06%  98.0  395s
 96634 25629   34.71429   68   98   33.00000   35.00000  6.06%  98.2  400s
 98311 26242   34.95000   48  107   33.00000   35.00000  6.06%  98.3  405s
 100487 27038     cutoff   48        33.00000   35.00000  6.06%  98.0  410s
 102786 28073   35.00000   51   79   33.00000   35.00000  6.06%  97.7  415s
 105243 28927   34.00000   46   62   33.00000   35.00000  6.06%  97.2  420s
*106957   966              52      34.0000000   35.00000  2.94%  96.8  422s
 106972   790   35.00000   40  454   34.00000   35.00000  2.94%  96.8  430s
 106984   798   35.00000   50  125   34.00000   35.00000  2.94%  96.7  435s
 106991   803   35.00000   41  142   34.00000   35.00000  2.94%  96.7  440s
 107374   763   35.00000   51   80   34.00000   35.00000  2.94%  97.1  445s
 107887   625   35.00000   53   91   34.00000   35.00000  2.94%  97.1  450s
 108027   575   35.00000   51   71   34.00000   35.00000  2.94%  97.1  455s
 108564   394   35.00000   51   79   34.00000   35.00000  2.94%  97.2  460s
 109001   234   35.00000   50   83   34.00000   35.00000  2.94%  97.3  465s
 110367   116   35.00000   50   95   34.00000   35.00000  2.94%  97.4  471s
 111385   143 infeasible   46        34.00000   35.00000  2.94%  97.7  475s
 112264   163   35.00000   50   96   34.00000   35.00000  2.94%  98.1  481s
 112861   157   35.00000   49   99   34.00000   35.00000  2.94%  98.2  485s
 113555   180 infeasible   59        34.00000   35.00000  2.94%  98.3  490s
 114156   338   35.00000   62   62   34.00000   35.00000  2.94%  98.3  495s
 115787   376   35.00000   60   84   34.00000   35.00000  2.94%  98.5  501s
 117073   358 infeasible   56        34.00000   35.00000  2.94%  98.6  505s
 118401   362   35.00000   66   74   34.00000   35.00000  2.94%  98.8  510s
 119380   382 infeasible   82        34.00000   35.00000  2.94%  99.0  516s
 119746   374   35.00000   62   94   34.00000   35.00000  2.94%  99.1  521s
 120553   445   35.00000   63   89   34.00000   35.00000  2.94%  99.4  526s
 121912   389   35.00000   60   93   34.00000   35.00000  2.94%   100  531s
 122838   426   35.00000   59   81   34.00000   35.00000  2.94%   100  536s
 123505   443 infeasible   52        34.00000   35.00000  2.94%   100  540s
 124922   460 infeasible   59        34.00000   35.00000  2.94%   100  546s
 126534   549 infeasible   55        34.00000   35.00000  2.94%   100  551s
 127452   504   35.00000   61   86   34.00000   35.00000  2.94%   101  555s
 129071   541 infeasible   78        34.00000   35.00000  2.94%   101  561s
 129605   537   35.00000   65   58   34.00000   35.00000  2.94%   101  566s
 129762   511 infeasible   67        34.00000   35.00000  2.94%   101  571s
 130766   571   35.00000   56   82   34.00000   35.00000  2.94%   101  576s
 131736   555 infeasible   62        34.00000   35.00000  2.94%   101  580s
 132887   572   35.00000   67   75   34.00000   35.00000  2.94%   101  585s
 133756   551 infeasible   61        34.00000   35.00000  2.94%   101  591s
 135238   558   35.00000   58   84   34.00000   35.00000  2.94%   102  596s
 136324   563 infeasible   63        34.00000   35.00000  2.94%   102  601s
 137661   586   35.00000   66   63   34.00000   35.00000  2.94%   102  606s
 138859   555 infeasible   60        34.00000   35.00000  2.94%   102  611s
 140126   597 infeasible   67        34.00000   35.00000  2.94%   103  616s
 141665   558 infeasible   64        34.00000   35.00000  2.94%   103  621s
 142148   550   35.00000   62   88   34.00000   35.00000  2.94%   103  625s
 142655   541   35.00000   68   50   34.00000   35.00000  2.94%   103  631s
 143361   545   35.00000   63   77   34.00000   35.00000  2.94%   103  635s
 144818   519   35.00000   52   84   34.00000   35.00000  2.94%   103  640s
 146134   504   35.00000   86   86   34.00000   35.00000  2.94%   104  645s
 147476   507 infeasible   68        34.00000   35.00000  2.94%   104  651s
 148873   527 infeasible   52        34.00000   35.00000  2.94%   104  656s
 149933   497   35.00000   64   71   34.00000   35.00000  2.94%   104  661s
 150758   501   35.00000   70   97   34.00000   35.00000  2.94%   104  665s
 152145   465   35.00000   69   64   34.00000   35.00000  2.94%   105  670s
 153380   596   35.00000   81   82   34.00000   35.00000  2.94%   105  675s
 153564   609   35.00000   62   96   34.00000   35.00000  2.94%   105  680s
 153656   619   35.00000   65   92   34.00000   35.00000  2.94%   105  685s
 154311   594 infeasible   67        34.00000   35.00000  2.94%   105  690s
 155631   613 infeasible   74        34.00000   35.00000  2.94%   106  696s
*156477   197              80      35.0000000   35.00000  0.00%   106  698s

Cutting planes:
  Gomory: 28
  Cover: 21
  Clique: 612
  Flow cover: 7
  Inf proof: 3
  Zero half: 17
  Relax-and-lift: 3

Explored 156754 nodes (16612216 simplex iterations) in 698.62 seconds (974.60 work units)
Thread count was 4 (of 64 available processors)

Solution count 10: 35 34 33 ... 26

Optimal solution found (tolerance 1.00e-04)
Best objective 3.500000000000e+01, best bound 3.500000000000e+01, gap 0.0000%
Gurobi 12.0.3: optimal solution; objective 35
1.66122e+07 simplex iterations
156754 branching nodes
clique_size = 35

Vertices in clique
==================
5
22
36
62
84
89
110
135
139
161
180
189
211
233
239
257
274
304
317
333
356
373
381
397
412
435
449
466
483
501
513
538
557
567
593

NEOS Server Home

